words_hard_train/6544.qaiger
aag 57 14 0 1 43
2
4
10
14
18
22
26
34
42
52
60
66
76
90
115
6 2 5
8 7 5
12 8 11
16 12 15
20 16 19
24 20 23
28 24 27
30 25 26
32 29 31
36 32 34
38 21 22
40 39 25
44 41 43
46 37 45
48 17 18
50 49 21
54 51 53
56 9 10
58 57 13
62 60 4
64 63 7
68 67 2
70 60 5
72 68 71
74 65 73
78 74 76
80 59 79
82 75 77
84 81 83
86 13 14
88 87 17
92 88 90
94 85 93
96 55 95
98 89 91
100 96 99
102 50 52
104 40 42
106 103 105
108 101 106
110 46 109
112 33 35
114 111 113
i0 2 y1[0]
i1 2 y1[1]
i2 2 y1[2]
i3 2 y1[3]
i4 2 y1[4]
i5 2 y1[5]
i6 2 y1[6]
i7 1 x2[6]
i8 1 x2[5]
i9 1 x2[4]
i10 1 x2[1]
i11 1 x2[0]
i12 1 x2[2]
i13 1 x2[3]
o0 bv[0]
c
simplified
  >=
    << 1
      1 x2
    subtract
      add
        2 y1
        2 y1
      1
