words_hard_train/6544.qaiger.qdimacs
p cnf 57 130
a 33 38 45 17 21 26 30 0
e 1 2 3 4 5 6 7 8 9 10 11 12 13 14 15 16 18 19 20 22 23 24 25 27 28 29 31 32 34 35 36 37 39 40 41 42 43 44 46 47 48 49 50 51 52 53 54 55 56 57 0
-1 2 3 0
1 -3 0
-2 -3 0
3 2 4 0
-3 -4 0
-2 -4 0
-4 5 6 0
4 -6 0
-5 -6 0
-6 7 8 0
6 -8 0
-7 -8 0
-8 9 10 0
8 -10 0
-9 -10 0
-10 11 12 0
10 -12 0
-11 -12 0
-12 13 14 0
12 -14 0
-13 -14 0
12 -13 15 0
-12 -15 0
13 -15 0
14 15 16 0
-14 -16 0
-15 -16 0
-16 -17 18 0
16 -18 0
17 -18 0
10 -11 19 0
-10 -19 0
11 -19 0
19 12 20 0
-19 -20 0
-12 -20 0
20 21 22 0
-20 -22 0
-21 -22 0
18 22 23 0
-18 -23 0
-22 -23 0
8 -9 24 0
-8 -24 0
9 -24 0
24 10 25 0
-24 -25 0
-10 -25 0
25 26 27 0
-25 -27 0
-26 -27 0
4 -5 28 0
-4 -28 0
5 -28 0
28 6 29 0
-28 -29 0
-6 -29 0
-30 -2 31 0
30 -31 0
2 -31 0
31 3 32 0
-31 -32 0
-3 -32 0
33 -1 34 0
-33 -34 0
1 -34 0
-30 2 35 0
30 -35 0
-2 -35 0
-34 35 36 0
34 -36 0
-35 -36 0
32 36 37 0
-32 -37 0
-36 -37 0
-37 -38 39 0
37 -39 0
38 -39 0
29 39 40 0
-29 -40 0
-39 -40 0
37 38 41 0
-37 -41 0
-38 -41 0
40 41 42 0
-40 -42 0
-41 -42 0
6 -7 43 0
-6 -43 0
7 -43 0
43 8 44 0
-43 -44 0
-8 -44 0
-44 -45 46 0
44 -46 0
45 -46 0
42 46 47 0
-42 -47 0
-46 -47 0
27 47 48 0
-27 -48 0
-47 -48 0
44 45 49 0
-44 -49 0
-45 -49 0
-48 49 50 0
48 -50 0
-49 -50 0
-25 -26 51 0
25 -51 0
26 -51 0
-20 -21 52 0
20 -52 0
21 -52 0
51 52 53 0
-51 -53 0
-52 -53 0
50 -53 54 0
-50 -54 0
53 -54 0
-23 54 55 0
23 -55 0
-54 -55 0
16 17 56 0
-16 -56 0
-17 -56 0
55 56 57 0
-55 -57 0
-56 -57 0
-57 0
